\ Model MILP2
\ LP format - for model browsing. Use MPS format to capture full model detail.
Minimize
  16 x(0)(0) + 13 x(1)(1) + 12 x(2)(2) + 11 x(3)(3) + 11 x(4)(4)
   + 10 x(5)(5) + 9 x(6)(6) + 9 x(7)(7) + 7 x(8)(8) + 5 x(9)(9)
Subject To
 constr(0): x(0)(0) = 1
 constr(1): x(1)(0) + x(1)(1) = 1
 constr(2): x(2)(0) + x(2)(1) + x(2)(2) = 1
 constr(3): x(3)(0) + x(3)(1) + x(3)(2) + x(3)(3) = 1
 constr(4): x(4)(0) + x(4)(1) + x(4)(2) + x(4)(3) + x(4)(4) = 1
 constr(5): x(5)(0) + x(5)(1) + x(5)(2) + x(5)(3) + x(5)(4) + x(5)(5) = 1
 constr(6): x(6)(0) + x(6)(1) + x(6)(2) + x(6)(3) + x(6)(4) + x(6)(5)
   + x(6)(6) = 1
 constr(7): x(7)(0) + x(7)(1) + x(7)(2) + x(7)(3) + x(7)(4) + x(7)(5)
   + x(7)(6) + x(7)(7) = 1
 constr(8): x(8)(0) + x(8)(1) + x(8)(2) + x(8)(3) + x(8)(4) + x(8)(5)
   + x(8)(6) + x(8)(7) + x(8)(8) = 1
 constr(9): x(9)(0) + x(9)(1) + x(9)(2) + x(9)(3) + x(9)(4) + x(9)(5)
   + x(9)(6) + x(9)(7) + x(9)(8) + x(9)(9) = 1
 constr(10): - 15 x(0)(0) + 3 x(1)(0) + 5 x(2)(0) + 2 x(3)(0) + 3 x(4)(0)
   + 4 x(5)(0) + 3 x(6)(0) + 2 x(7)(0) + 2 x(8)(0) + 3 x(9)(0) <= 0
 constr(11): - 17 x(1)(1) + 5 x(2)(1) + 2 x(3)(1) + 3 x(4)(1) + 4 x(5)(1)
   + 3 x(6)(1) + 2 x(7)(1) + 2 x(8)(1) + 3 x(9)(1) <= 0
 constr(12): - 15 x(2)(2) + 2 x(3)(2) + 3 x(4)(2) + 4 x(5)(2) + 3 x(6)(2)
   + 2 x(7)(2) + 2 x(8)(2) + 3 x(9)(2) <= 0
 constr(13): - 18 x(3)(3) + 3 x(4)(3) + 4 x(5)(3) + 3 x(6)(3) + 2 x(7)(3)
   + 2 x(8)(3) + 3 x(9)(3) <= 0
 constr(14): - 17 x(4)(4) + 4 x(5)(4) + 3 x(6)(4) + 2 x(7)(4) + 2 x(8)(4)
   + 3 x(9)(4) <= 0
 constr(15): - 16 x(5)(5) + 3 x(6)(5) + 2 x(7)(5) + 2 x(8)(5) + 3 x(9)(5)
   <= 0
 constr(16): - 17 x(6)(6) + 2 x(7)(6) + 2 x(8)(6) + 3 x(9)(6) <= 0
 constr(17): - 18 x(7)(7) + 2 x(8)(7) + 3 x(9)(7) <= 0
 constr(18): - 18 x(8)(8) + 3 x(9)(8) <= 0
 constr(19): - x(0)(0) <= 0
 constr(20): - x(0)(0) + x(1)(0) <= 0
 constr(21): - x(1)(1) <= 0
 constr(22): - x(0)(0) + x(2)(0) <= 0
 constr(23): - x(1)(1) + x(2)(1) <= 0
 constr(24): - x(2)(2) <= 0
 constr(25): - x(0)(0) + x(3)(0) <= 0
 constr(26): - x(1)(1) + x(3)(1) <= 0
 constr(27): - x(2)(2) + x(3)(2) <= 0
 constr(28): - x(3)(3) <= 0
 constr(29): - x(0)(0) + x(4)(0) <= 0
 constr(30): - x(1)(1) + x(4)(1) <= 0
 constr(31): - x(2)(2) + x(4)(2) <= 0
 constr(32): - x(3)(3) + x(4)(3) <= 0
 constr(33): - x(4)(4) <= 0
 constr(34): - x(0)(0) + x(5)(0) <= 0
 constr(35): - x(1)(1) + x(5)(1) <= 0
 constr(36): - x(2)(2) + x(5)(2) <= 0
 constr(37): - x(3)(3) + x(5)(3) <= 0
 constr(38): - x(4)(4) + x(5)(4) <= 0
 constr(39): - x(5)(5) <= 0
 constr(40): - x(0)(0) + x(6)(0) <= 0
 constr(41): - x(1)(1) + x(6)(1) <= 0
 constr(42): - x(2)(2) + x(6)(2) <= 0
 constr(43): - x(3)(3) + x(6)(3) <= 0
 constr(44): - x(4)(4) + x(6)(4) <= 0
 constr(45): - x(5)(5) + x(6)(5) <= 0
 constr(46): - x(6)(6) <= 0
 constr(47): - x(0)(0) + x(7)(0) <= 0
 constr(48): - x(1)(1) + x(7)(1) <= 0
 constr(49): - x(2)(2) + x(7)(2) <= 0
 constr(50): - x(3)(3) + x(7)(3) <= 0
 constr(51): - x(4)(4) + x(7)(4) <= 0
 constr(52): - x(5)(5) + x(7)(5) <= 0
 constr(53): - x(6)(6) + x(7)(6) <= 0
 constr(54): - x(7)(7) <= 0
 constr(55): - x(0)(0) + x(8)(0) <= 0
 constr(56): - x(1)(1) + x(8)(1) <= 0
 constr(57): - x(2)(2) + x(8)(2) <= 0
 constr(58): - x(3)(3) + x(8)(3) <= 0
 constr(59): - x(4)(4) + x(8)(4) <= 0
 constr(60): - x(5)(5) + x(8)(5) <= 0
 constr(61): - x(6)(6) + x(8)(6) <= 0
 constr(62): - x(7)(7) + x(8)(7) <= 0
 constr(63): - x(8)(8) <= 0
 constr(64): - x(0)(0) + x(9)(0) <= 0
 constr(65): - x(1)(1) + x(9)(1) <= 0
 constr(66): - x(2)(2) + x(9)(2) <= 0
 constr(67): - x(3)(3) + x(9)(3) <= 0
 constr(68): - x(4)(4) + x(9)(4) <= 0
 constr(69): - x(5)(5) + x(9)(5) <= 0
 constr(70): - x(6)(6) + x(9)(6) <= 0
 constr(71): - x(7)(7) + x(9)(7) <= 0
 constr(72): - x(8)(8) + x(9)(8) <= 0
 constr(73): - x(9)(9) <= 0
Bounds
Binaries
 x(0)(0) x(1)(0) x(1)(1) x(2)(0) x(2)(1) x(2)(2) x(3)(0) x(3)(1) x(3)(2)
 x(3)(3) x(4)(0) x(4)(1) x(4)(2) x(4)(3) x(4)(4) x(5)(0) x(5)(1) x(5)(2)
 x(5)(3) x(5)(4) x(5)(5) x(6)(0) x(6)(1) x(6)(2) x(6)(3) x(6)(4) x(6)(5)
 x(6)(6) x(7)(0) x(7)(1) x(7)(2) x(7)(3) x(7)(4) x(7)(5) x(7)(6) x(7)(7)
 x(8)(0) x(8)(1) x(8)(2) x(8)(3) x(8)(4) x(8)(5) x(8)(6) x(8)(7) x(8)(8)
 x(9)(0) x(9)(1) x(9)(2) x(9)(3) x(9)(4) x(9)(5) x(9)(6) x(9)(7) x(9)(8)
 x(9)(9)
End
